(set-logic QF_SLAH)

(declare-datatypes ((data_t 0)) (((c_data_t (sz Int)))))

(declare-heap (Int data_t))

(define-fun hck ((?x Int) (?y Int) (?v Int)) Bool
	(and
		(>= (- ?y ?x) 2) (<= (- ?y ?x) ?v)
		(sep (pto ?x (c_data_t (- ?y ?x))) (blk (+ ?x 1) ?y))
))

(define-fun-rec hls ((?x Int) (?y Int) (?v Int)) Bool
	(or
		(and (= ?x ?y) (_ emp Int data_t))
		(exists ((?w Int)) (sep (hck ?x ?w ?v) (hls ?w ?y ?v)))
))

(declare-const x0 Int)
(declare-const x1 Int)
(declare-const x2 Int)
(declare-const x3 Int)
(declare-const x4 Int)
(declare-const x5 Int)
(declare-const x6 Int)
(declare-const x7 Int)
(declare-const v6 Int)
(declare-const x8 Int)
(declare-const x9 Int)
(declare-const x10 Int)
(declare-const x11 Int)
(declare-const v10 Int)
(declare-const x12 Int)
(declare-const x13 Int)
(declare-const v12 Int)
(declare-const x14 Int)
(declare-const x15 Int)
(declare-const v14 Int)
(declare-const x16 Int)
(declare-const x17 Int)
(declare-const x18 Int)
(declare-const x19 Int)
(declare-const x20 Int)
(declare-const x21 Int)
(declare-const x22 Int)
(declare-const x23 Int)
(declare-const x24 Int)
(declare-const x25 Int)
(declare-const x26 Int)
(declare-const x27 Int)
(declare-const v26 Int)
(declare-const x28 Int)
(declare-const x29 Int)
(declare-const v28 Int)
(declare-const x30 Int)
(declare-const x31 Int)
(declare-const x32 Int)
(declare-const x33 Int)
(declare-const x34 Int)
(declare-const x35 Int)
(declare-const x36 Int)
(declare-const x37 Int)
(declare-const x38 Int)
(declare-const x39 Int)
(declare-const x40 Int)
(declare-const x41 Int)
(declare-const x42 Int)
(declare-const x43 Int)
(declare-const x44 Int)
(declare-const x45 Int)
(declare-const x46 Int)
(declare-const x47 Int)
(declare-const v46 Int)
(declare-const x48 Int)
(declare-const x49 Int)
(declare-const x50 Int)
(declare-const x51 Int)
(declare-const v50 Int)
(declare-const x52 Int)
(declare-const x53 Int)
(declare-const x54 Int)
(declare-const x55 Int)
(declare-const x56 Int)
(declare-const x57 Int)
(declare-const v56 Int)
(declare-const x58 Int)
(declare-const x59 Int)
(declare-const x60 Int)
(declare-const x61 Int)
(declare-const x62 Int)
(declare-const x63 Int)
(declare-const v62 Int)
(declare-const x64 Int)
(declare-const x65 Int)
(declare-const v64 Int)
(declare-const x66 Int)
(declare-const x67 Int)
(declare-const x68 Int)
(declare-const x69 Int)
(declare-const x70 Int)
(declare-const x71 Int)
(declare-const x72 Int)
(declare-const x73 Int)
(declare-const x74 Int)
(declare-const x75 Int)
(declare-const x76 Int)
(declare-const x77 Int)
(declare-const x78 Int)
(declare-const x79 Int)
(declare-const x80 Int)
(declare-const x81 Int)
(declare-const x82 Int)
(declare-const x83 Int)
(declare-const x84 Int)
(declare-const x85 Int)
(declare-const v84 Int)
(declare-const x86 Int)
(declare-const x87 Int)
(declare-const x88 Int)
(declare-const x89 Int)
(declare-const x90 Int)
(declare-const x91 Int)
(declare-const v90 Int)
(declare-const x92 Int)
(declare-const x93 Int)
(declare-const x94 Int)
(declare-const x95 Int)
(declare-const v94 Int)
(declare-const x96 Int)
(declare-const x97 Int)
(declare-const x98 Int)
(declare-const x99 Int)
(declare-const v98 Int)
(declare-const x100 Int)
(declare-const x101 Int)
(declare-const v100 Int)
(declare-const x102 Int)
(declare-const x103 Int)
(declare-const x104 Int)
(declare-const x105 Int)
(declare-const v104 Int)
(declare-const x106 Int)
(declare-const x107 Int)
(declare-const x108 Int)
(declare-const x109 Int)
(declare-const x110 Int)
(declare-const x111 Int)
(declare-const x112 Int)
(declare-const x113 Int)
(declare-const v112 Int)
(declare-const x114 Int)
(declare-const x115 Int)
(declare-const v114 Int)
(declare-const x116 Int)
(declare-const x117 Int)
(declare-const v116 Int)
(declare-const x118 Int)
(declare-const x119 Int)
(declare-const x120 Int)
(declare-const x121 Int)
(declare-const x122 Int)
(declare-const x123 Int)
(declare-const x124 Int)
(declare-const x125 Int)
(declare-const x126 Int)
(declare-const x127 Int)
(declare-const v126 Int)
(declare-const x128 Int)
(declare-const x129 Int)
(declare-const x130 Int)
(declare-const x131 Int)
(declare-const x132 Int)
(declare-const x133 Int)
(declare-const x134 Int)
(declare-const x135 Int)
(declare-const x136 Int)
(declare-const x137 Int)
(declare-const x138 Int)
(declare-const x139 Int)
(declare-const x140 Int)
(declare-const x141 Int)
(declare-const v140 Int)
(declare-const x142 Int)
(declare-const x143 Int)
(declare-const x144 Int)
(declare-const x145 Int)
(declare-const x146 Int)
(declare-const x147 Int)
(declare-const x148 Int)
(declare-const x149 Int)
(declare-const x150 Int)
(declare-const x151 Int)
(declare-const x152 Int)
(declare-const x153 Int)
(declare-const v152 Int)
(declare-const x154 Int)
(declare-const x155 Int)
(declare-const x156 Int)
(declare-const x157 Int)
(declare-const x158 Int)
(declare-const x159 Int)

(assert(and
(< x45 x124) (< x140 x71) (= x78 x60) (< x147 x78) (< x127 x40) (= x48 x50) (< x79 x146) (< x140 x139) (= x36 x11) (distinct x115 x120) (= x151 x42) (= x26 x100) (= x159 x18) (< x139 x68) (distinct x96 x49) (< x103 x94) (= x10 x57) (= x108 x63) 
(sep
(pto x0 (c_data_t x1))
(pto x2 (c_data_t x3))
(blk x4 x5)
(hls x6 x7 v6)
(blk x8 x9)
(hls x10 x11 v10)
(hls x12 x13 v12)
(hls x14 x15 v14)
(blk x16 x17)
(pto x18 (c_data_t x19))
(blk x20 x21)
(pto x22 (c_data_t x23))
(pto x24 (c_data_t x25))
(hls x26 x27 v26)
(hls x28 x29 v28)
(pto x30 (c_data_t x31))
(blk x32 x33)
(blk x34 x35)
(blk x36 x37)
(blk x38 x39)
(pto x40 (c_data_t x41))
(pto x42 (c_data_t x43))
(pto x44 (c_data_t x45))
(hls x46 x47 v46)
(blk x48 x49)
(hls x50 x51 v50)
(blk x52 x53)
(pto x54 (c_data_t x55))
(hls x56 x57 v56)
(pto x58 (c_data_t x59))
(pto x60 (c_data_t x61))
(hls x62 x63 v62)
(hls x64 x65 v64)
(pto x66 (c_data_t x67))
(blk x68 x69)
(pto x70 (c_data_t x71))
(blk x72 x73)
(blk x74 x75)
(pto x76 (c_data_t x77))
(blk x78 x79)
(pto x80 (c_data_t x81))
(blk x82 x83)
(hls x84 x85 v84)
(blk x86 x87)
(blk x88 x89)
(hls x90 x91 v90)
(blk x92 x93)
(hls x94 x95 v94)
(blk x96 x97)
(hls x98 x99 v98)
(hls x100 x101 v100)
(blk x102 x103)
(hls x104 x105 v104)
(blk x106 x107)
(blk x108 x109)
(pto x110 (c_data_t x111))
(hls x112 x113 v112)
(hls x114 x115 v114)
(hls x116 x117 v116)
(pto x118 (c_data_t x119))
(pto x120 (c_data_t x121))
(blk x122 x123)
(blk x124 x125)
(hls x126 x127 v126)
(pto x128 (c_data_t x129))
(pto x130 (c_data_t x131))
(pto x132 (c_data_t x133))
(pto x134 (c_data_t x135))
(pto x136 (c_data_t x137))
(blk x138 x139)
(hls x140 x141 v140)
(pto x142 (c_data_t x143))
(blk x144 x145)
(pto x146 (c_data_t x147))
(pto x148 (c_data_t x149))
(pto x150 (c_data_t x151))
(hls x152 x153 v152)
(pto x154 (c_data_t x155))
(blk x156 x157)
(pto x158 (c_data_t x159))
)))

(check-sat)